/*********************************************
 * OPL 12.8.0.0 Model
 * Author: Nuno
 * Creation Date: 29/01/2022 at 13:15:37
 *********************************************/

nWarehouses = 3;
nCustomers = 5;

Capacity =  [500 500 500];

FixedCosts = [1000 1000 1000];

Demand = [80 270 250 160 180];


SupplyCosts = [
[4 6 9]
[5 4 7]
[6 3 4]
[8 5 3]
[10 8 4]
];